97
Lattice="9.95606347910659 0.0 6.096330635897873e-16 -4.978031739553294 8.622203894596788 6.096330635897873e-16 0.0 0.0 36.580913055854694" Properties=species:S:1:pos:R:3 pbc="T T F"
Ni       0.00000000       0.00000000      17.27432005
Ni       0.00000000       1.43703398      13.20977416
Ni       1.24450793       0.71851699      15.24204711
Ni       0.00000000       0.00000000      23.37113890
Ni       0.00000000       1.43703398      19.30659300
Ni       1.24450793       0.71851699      21.33886595
Ni      -1.24450793       2.15555097      17.27432005
Ni      -1.24450793       3.59258496      13.20977416
Ni       0.00000000       2.87406796      15.24204711
Ni      -1.24450793       2.15555097      23.37113890
Ni      -1.24450793       3.59258496      19.30659300
Ni       0.00000000       2.87406796      21.33886595
Ni      -2.48901587       4.31110195      17.27432005
Ni      -2.48901587       5.74813593      13.20977416
Ni      -1.24450793       5.02961894      15.24204711
Ni      -2.48901587       4.31110195      23.37113890
Ni      -2.48901587       5.74813593      19.30659300
Ni      -1.24450793       5.02961894      21.33886595
Ni      -3.73352380       6.46665292      17.27432005
Ni      -3.73352380       7.90368690      13.20977416
Ni      -2.48901587       7.18516991      15.24204711
Ni      -3.73352380       6.46665292      23.37113890
Ni      -3.73352380       7.90368690      19.30659300
Ni      -2.48901587       7.18516991      21.33886595
Ni       2.48901587       0.00000000      17.27432005
Ni       2.48901587       1.43703398      13.20977416
Ni       3.73352380       0.71851699      15.24204711
Ni       2.48901587       0.00000000      23.37113890
Ni       2.48901587       1.43703398      19.30659300
Ni       3.73352380       0.71851699      21.33886595
Ni       1.24450793       2.15555097      17.27432005
Ni       1.24450793       3.59258496      13.20977416
Ni       2.48901587       2.87406796      15.24204711
Ni       1.24450793       2.15555097      23.37113890
Ni       1.24450793       3.59258496      19.30659300
Ni       2.48901587       2.87406796      21.33886595
Ni       0.00000000       4.31110195      17.27432005
Ni       0.00000000       5.74813593      13.20977416
Ni       1.24450793       5.02961894      15.24204711
Ni       0.00000000       4.31110195      23.37113890
Ni       0.00000000       5.74813593      19.30659300
Ni       1.24450793       5.02961894      21.33886595
Ni      -1.24450793       6.46665292      17.27432005
Ni      -1.24450793       7.90368690      13.20977416
Ni       0.00000000       7.18516991      15.24204711
Ni      -1.24450793       6.46665292      23.37113890
Ni      -1.24450793       7.90368690      19.30659300
Ni       0.00000000       7.18516991      21.33886595
Ni       4.97803174       0.00000000      17.27432005
Ni       4.97803174       1.43703398      13.20977416
Ni       6.22253967       0.71851699      15.24204711
Ni       4.97803174       0.00000000      23.37113890
Ni       4.97803174       1.43703398      19.30659300
Ni       6.22253967       0.71851699      21.33886595
Ni       3.73352380       2.15555097      17.27432005
Ni       3.73352380       3.59258496      13.20977416
Ni       4.97803174       2.87406796      15.24204711
Ni       3.73352380       2.15555097      23.37113890
Ni       3.73352380       3.59258496      19.30659300
Ni       4.97803174       2.87406796      21.33886595
Ni       2.48901587       4.31110195      17.27432005
Ni       2.48901587       5.74813593      13.20977416
Ni       3.73352380       5.02961894      15.24204711
Ni       2.48901587       4.31110195      23.37113890
Ni       2.48901587       5.74813593      19.30659300
Ni       3.73352380       5.02961894      21.33886595
Ni       1.24450793       6.46665292      17.27432005
Ni       1.24450793       7.90368690      13.20977416
Ni       2.48901587       7.18516991      15.24204711
Ni       1.24450793       6.46665292      23.37113890
Ni       1.24450793       7.90368690      19.30659300
Ni       2.48901587       7.18516991      21.33886595
Ni       7.46704761       0.00000000      17.27432005
Ni       7.46704761       1.43703398      13.20977416
Ni       8.71155554       0.71851699      15.24204711
Ni       7.46704761       0.00000000      23.37113890
Ni       7.46704761       1.43703398      19.30659300
Ni       8.71155554       0.71851699      21.33886595
Ni       6.22253967       2.15555097      17.27432005
Ni       6.22253967       3.59258496      13.20977416
Ni       7.46704761       2.87406796      15.24204711
Ni       6.22253967       2.15555097      23.37113890
Ni       6.22253967       3.59258496      19.30659300
Ni       7.46704761       2.87406796      21.33886595
Ni       4.97803174       4.31110195      17.27432005
Ni       4.97803174       5.74813593      13.20977416
Ni       6.22253967       5.02961894      15.24204711
Ni       4.97803174       4.31110195      23.37113890
Ni       4.97803174       5.74813593      19.30659300
Ni       6.22253967       5.02961894      21.33886595
Ni       3.73352380       6.46665292      17.27432005
Ni       3.73352380       7.90368690      13.20977416
Ni       4.97803174       7.18516991      15.24204711
Ni       3.73352380       6.46665292      23.37113890
Ni       3.73352380       7.90368690      19.30659300
Ni       4.97803174       7.18516991      21.33886595
H        8.48645374       1.51432437      24.87468724
